NAME          
ROWS
 N  OBJ
 L  c1
 L  c2
COLUMNS
    MARKER    'MARKER'                 'INTORG'
    x[1]      c1        401
    x[1]      c2        539
    x[1]      OBJ       -273
    x[2]      c1        717
    x[2]      c2        462
    x[2]      OBJ       -111
    x[3]      c1        391
    x[3]      c2        891
    x[3]      OBJ       -465
    x[4]      c1        426
    x[4]      c2        85
    x[4]      OBJ       -473
    x[5]      c1        418
    x[5]      c2        221
    x[5]      OBJ       -436
    x[6]      c1        910
    x[6]      c2        547
    x[6]      OBJ       -173
    x[7]      c1        90
    x[7]      c2        173
    x[7]      OBJ       -460
    x[8]      c1        283
    x[8]      c2        13
    x[8]      OBJ       -266
    x[9]      c1        50
    x[9]      c2        713
    x[9]      OBJ       -446
    x[10]     c1        939
    x[10]     c2        840
    x[10]     OBJ       -215
    x[11]     c1        748
    x[11]     c2        976
    x[11]     OBJ       -489
    x[12]     c1        395
    x[12]     c2        39
    x[12]     OBJ       -74
    x[13]     c1        85
    x[13]     c2        802
    x[13]     OBJ       -473
    x[14]     c1        852
    x[14]     c2        15
    x[14]     OBJ       -961
    x[15]     c1        232
    x[15]     c2        985
    x[15]     OBJ       -448
    x[16]     c1        846
    x[16]     c2        354
    x[16]     OBJ       -551
    x[17]     c1        676
    x[17]     c2        445
    x[17]     OBJ       -841
    x[18]     c1        782
    x[18]     c2        59
    x[18]     OBJ       -835
    x[19]     c1        195
    x[19]     c2        606
    x[19]     OBJ       -321
    x[20]     c1        673
    x[20]     c2        592
    x[20]     OBJ       -243
    x[21]     c1        901
    x[21]     c2        716
    x[21]     OBJ       -338
    x[22]     c1        663
    x[22]     c2        191
    x[22]     OBJ       -871
    x[23]     c1        238
    x[23]     c2        48
    x[23]     OBJ       -942
    x[24]     c1        948
    x[24]     c2        992
    x[24]     OBJ       -627
    x[25]     c1        961
    x[25]     c2        512
    x[25]     OBJ       -990
    x[26]     c1        953
    x[26]     c2        584
    x[26]     OBJ       -265
    x[27]     c1        813
    x[27]     c2        891
    x[27]     OBJ       -353
    x[28]     c1        647
    x[28]     c2        478
    x[28]     OBJ       -454
    x[29]     c1        287
    x[29]     c2        78
    x[29]     OBJ       -390
    x[30]     c1        95
    x[30]     c2        422
    x[30]     OBJ       -757
    x[31]     c1        994
    x[31]     c2        886
    x[31]     OBJ       -666
    x[32]     c1        337
    x[32]     c2        822
    x[32]     OBJ       -469
    x[33]     c1        984
    x[33]     c2        300
    x[33]     OBJ       -637
    x[34]     c1        34
    x[34]     c2        697
    x[34]     OBJ       -480
    x[35]     c1        645
    x[35]     c2        8
    x[35]     OBJ       -519
RHS
    rhs       c1        9804
    rhs       c2        8491
RANGES
BOUNDS
 BV bounds    x[1]
 BV bounds    x[2]
 BV bounds    x[3]
 BV bounds    x[4]
 BV bounds    x[5]
 BV bounds    x[6]
 BV bounds    x[7]
 BV bounds    x[8]
 BV bounds    x[9]
 BV bounds    x[10]
 BV bounds    x[11]
 BV bounds    x[12]
 BV bounds    x[13]
 BV bounds    x[14]
 BV bounds    x[15]
 BV bounds    x[16]
 BV bounds    x[17]
 BV bounds    x[18]
 BV bounds    x[19]
 BV bounds    x[20]
 BV bounds    x[21]
 BV bounds    x[22]
 BV bounds    x[23]
 BV bounds    x[24]
 BV bounds    x[25]
 BV bounds    x[26]
 BV bounds    x[27]
 BV bounds    x[28]
 BV bounds    x[29]
 BV bounds    x[30]
 BV bounds    x[31]
 BV bounds    x[32]
 BV bounds    x[33]
 BV bounds    x[34]
 BV bounds    x[35]
ENDATA
